
Gurobi 11.0.0 (win64, gurobi_cl) logging started Sat Dec  9 23:38:27 2023

Set parameter Username
Set parameter LogFile to value "gurobi.log"
Using license file C:\Users\otoragay\gurobi.lic
Academic license - for non-commercial use only - expires 2024-11-29

Gurobi 11.0.0 (win64, gurobi_cl) logging started Sat Dec  9 23:44:51 2023

Set parameter Username
Set parameter LogFile to value "gurobi.log"
Using license file C:\Users\otoragay\gurobi.lic
Academic license - for non-commercial use only - expires 2024-11-29

Gurobi 11.0.0 (win64, gurobi_cl) logging started Sat Dec  9 23:49:56 2023

Set parameter Username
Set parameter LogFile to value "gurobi.log"
Using license file C:\Users\otoragay\gurobi.lic
Academic license - for non-commercial use only - expires 2024-11-29

Gurobi 11.0.0 (win64, gurobi_cl) logging started Sat Dec  9 23:50:30 2023

Set parameter Username
Set parameter LogFile to value "gurobi.log"
Using license file C:\Users\otoragay\gurobi.lic
Academic license - for non-commercial use only - expires 2024-11-29

Gurobi 11.0.0 (win64, gurobi_cl) logging started Sat Dec  9 23:53:49 2023

Set parameter Username
Set parameter LogFile to value "gurobi.log"
Using license file C:\Users\otoragay\gurobi.lic
Academic license - for non-commercial use only - expires 2024-11-29

Gurobi 11.0.0 (win64, gurobi_cl) logging started Sat Dec  9 23:54:21 2023

Set parameter Username
Set parameter LogFile to value "gurobi.log"
Using license file C:\Users\otoragay\gurobi.lic
Academic license - for non-commercial use only - expires 2024-11-29

Gurobi 11.0.0 (win64, gurobi_cl) logging started Sat Dec  9 23:57:06 2023

Set parameter Username
Set parameter LogFile to value "gurobi.log"
Using license file C:\Users\otoragay\gurobi.lic
Academic license - for non-commercial use only - expires 2024-11-29

Gurobi 11.0.0 (win64, gurobi_cl) logging started Sun Dec 10 00:01:07 2023

Set parameter Username
Set parameter LogFile to value "gurobi.log"
Using license file C:\Users\otoragay\gurobi.lic
Academic license - for non-commercial use only - expires 2024-11-29

Gurobi 11.0.0 (win64, gurobi_cl) logging started Sun Dec 10 00:01:24 2023

Set parameter Username
Set parameter LogFile to value "gurobi.log"
Using license file C:\Users\otoragay\gurobi.lic
Academic license - for non-commercial use only - expires 2024-11-29

Gurobi 11.0.0 (win64, gurobi_cl) logging started Sun Dec 10 00:01:39 2023

Set parameter Username
Set parameter LogFile to value "gurobi.log"
Using license file C:\Users\otoragay\gurobi.lic
Academic license - for non-commercial use only - expires 2024-11-29

Gurobi 11.0.0 (win64, gurobi_cl) logging started Sun Dec 10 00:03:41 2023

Set parameter Username
Set parameter LogFile to value "gurobi.log"
Using license file C:\Users\otoragay\gurobi.lic
Academic license - for non-commercial use only - expires 2024-11-29
